NAME	SimCCS
ROWS
	L	B20
	L	B21
	L	B22
	L	B23
	L	B24
	L	B25
	G	A108
	L	B26
	L	A109
	L	B27
	G	A106
	L	B28
	L	A107
	L	B29
	G	A104
	L	A105
	G	A102
	L	A103
	G	A100
	L	A101
	E	H[1][1]
	L	A1
	G	A2
	L	A3
	G	A4
	L	A5
	G	A6
	L	A7
	G	A8
	L	A9
	L	B30
	G	A10
	L	B31
	L	A11
	L	B32
	G	A12
	L	B33
	L	A13
	L	B34
	G	A14
	L	B35
	L	A15
	L	B36
	G	A16
	L	A119
	L	B37
	L	A17
	L	B38
	G	A18
	L	A117
	L	B39
	L	A19
	G	A118
	L	A115
	G	A116
	L	A113
	G	A114
	L	A111
	E	H[1][0]
	G	A112
	L	B1
	L	B2
	G	A110
	L	B3
	L	B4
	L	B5
	L	B6
	L	B7
	L	B8
	L	B9
	L	B40
	G	A20
	L	B41
	L	A21
	L	B42
	G	A22
	L	B43
	L	A23
	L	B44
	G	A24
	L	B45
	L	A25
	L	B46
	G	A26
	L	B47
	L	A27
	L	B48
	G	A28
	L	A29
	G	A128
	L	A129
	G	A126
	L	A127
	G	A124
	L	A125
	G	A122
	E	C1
	L	A123
	E	C2
	G	A120
	E	C3
	L	A121
	E	C4
	E	C5
	E	C6
	E	C7
	E	C8
	E	C9
	G	A30
	L	A31
	G	A32
	L	A33
	G	A34
	L	A35
	G	A36
	L	A37
	G	A38
	L	A39
	L	A139
	L	A137
	G	A138
	L	A135
	G	A136
	G	D1
	L	A133
	G	D2
	G	A134
	G	D3
	L	A131
	G	D4
	G	A132
	G	A130
	G	A40
	L	A41
	G	A42
	L	A43
	G	A44
	L	A45
	G	A46
	L	A47
	G	A48
	L	A49
	G	A148
	L	A149
	G	A146
	G	E1
	L	A147
	G	E2
	G	A144
	G	E3
	L	A145
	G	E4
	G	A142
	L	A143
	G	A140
	L	A141
	G	A50
	E	H[2]
	L	A51
	G	A52
	L	A53
	G	A54
	L	A55
	G	A56
	L	A57
	G	A58
	L	A59
	L	A159
	G	F1
	L	A157
	G	F2
	G	A158
	G	F3
	L	A155
	G	F4
	G	A156
	L	A153
	G	A154
	L	A151
	G	A152
	G	A150
	G	A60
	L	A61
	G	A62
	L	A63
	G	A64
	L	A65
	G	A66
	L	A67
	G	A68
	L	A69
	E	H[3][0]
	E	G1
	G	A168
	L	A169
	G	A166
	L	A167
	G	A164
	L	A165
	G	A162
	L	A163
	G	A160
	L	A161
	N	OBJ
	G	A70
	L	A71
	G	A72
	L	A73
	G	A74
	L	A75
	G	A76
	L	A77
	G	A78
	L	A79
	E	H[3][1]
	L	A179
	L	A177
	G	A178
	L	A175
	G	A176
	L	A173
	G	A174
	L	A171
	G	A172
	G	A170
	G	A80
	L	A81
	G	A82
	L	A83
	G	A84
	L	A85
	G	A86
	L	A87
	G	A88
	L	A89
	G	A188
	L	A189
	G	A186
	L	A187
	G	A184
	L	A185
	G	A182
	L	A183
	G	A180
	L	A181
	G	A90
	L	A91
	G	A92
	L	A93
	G	A94
	L	A95
	G	A96
	L	A97
	G	A98
	L	A99
	L	A191
	G	A192
	G	A190
	E	C11
	E	C10
	E	C13
	E	C12
	E	C15
	E	C14
	E	C17
	E	C16
	E	C19
	E	C18
	E	C20
	L	B10
	L	B11
	L	B12
	L	B13
	L	B14
	L	B15
	L	B16
	L	B17
	L	B18
	L	B19
COLUMNS
	MARK0000	'MARKER'	'INTORG'
	y[16][1][0]	OBJ	6.37591
	y[16][1][0]	B17	1.0
	y[16][1][0]	A67	-7.911
	y[1][1][1]	A103	-7.911
	y[1][1][1]	OBJ	0.58985
	y[1][1][1]	B26	1.0
	y[0][1][1]	OBJ	0.58985
	y[0][1][1]	B25	1.0
	y[0][1][1]	A99	-7.911
	y[2][1][1]	A107	-7.911
	y[2][1][1]	B27	1.0
	y[2][1][1]	OBJ	11.75231
	y[12][1][0]	B13	1.0
	y[12][1][0]	A51	-7.911
	y[12][1][0]	OBJ	2.93846
	y[13][1][0]	B14	1.0
	y[13][1][0]	A55	-7.911
	y[13][1][0]	OBJ	2.93846
	y[18][1][0]	B19	1.0
	y[18][1][0]	A75	-7.911
	y[18][1][0]	OBJ	0.08624
	y[10][1][0]	A43	-7.911
	y[10][1][0]	OBJ	7.6226
	y[10][1][0]	B11	1.0
	y[11][1][0]	A47	-7.911
	y[11][1][0]	B12	1.0
	y[11][1][0]	OBJ	7.6226
	y[14][1][0]	B15	1.0
	y[14][1][0]	A59	-7.911
	y[14][1][0]	OBJ	2.49184
	y[15][1][0]	B16	1.0
	y[15][1][0]	OBJ	2.49184
	y[15][1][0]	A63	-7.911
	y[17][1][0]	B18	1.0
	y[17][1][0]	A71	-7.911
	y[17][1][0]	OBJ	6.37591
	y[19][1][0]	B20	1.0
	y[19][1][0]	OBJ	0.08624
	y[19][1][0]	A79	-7.911
	y[8][1][1]	OBJ	0.11628
	y[8][1][1]	A131	-7.911
	y[8][1][1]	B33	1.0
	y[9][1][1]	OBJ	0.11628
	y[9][1][1]	B34	1.0
	y[9][1][1]	A135	-7.911
	y[5][1][1]	OBJ	17.73472
	y[5][1][1]	B30	1.0
	y[5][1][1]	A119	-7.911
	y[4][1][1]	B29	1.0
	y[4][1][1]	OBJ	17.73472
	y[4][1][1]	A115	-7.911
	y[3][1][1]	OBJ	11.75231
	y[3][1][1]	B28	1.0
	y[3][1][1]	A111	-7.911
	y[6][1][1]	OBJ	23.6078
	y[6][1][1]	B31	1.0
	y[6][1][1]	A123	-7.911
	y[7][1][1]	A127	-7.911
	y[7][1][1]	B32	1.0
	y[7][1][1]	OBJ	23.6078
	y[1][1][0]	OBJ	0.58985
	y[1][1][0]	A7	-7.911
	y[1][1][0]	B2	1.0
	y[16][1][1]	A163	-7.911
	y[16][1][1]	OBJ	6.37591
	y[16][1][1]	B41	1.0
	s[1][0]	D2	3.276
	s[1][0]	OBJ	351.85
	y[12][1][1]	OBJ	2.93846
	y[12][1][1]	B37	1.0
	y[12][1][1]	A147	-7.911
	y[21][1][1]	A183	-7.911
	y[21][1][1]	OBJ	23.16348
	y[21][1][1]	B46	1.0
	w[0][0]	OBJ	0.5869
	w[0][0]	E1	0.18
	y[10][1][1]	A139	-7.911
	y[10][1][1]	OBJ	7.6226
	y[10][1][1]	B35	1.0
	y[14][1][1]	B39	1.0
	y[14][1][1]	OBJ	2.49184
	y[14][1][1]	A155	-7.911
	y[18][1][1]	B43	1.0
	y[18][1][1]	OBJ	0.08624
	y[18][1][1]	A171	-7.911
	y[23][1][1]	A191	-7.911
	y[23][1][1]	OBJ	0.12244
	y[23][1][1]	B48	1.0
	y[9][1][0]	B10	1.0
	y[9][1][0]	A39	-7.911
	y[9][1][0]	OBJ	0.11628
	y[5][1][0]	B6	1.0
	y[5][1][0]	A23	-7.911
	y[5][1][0]	OBJ	17.73472
	y[7][1][0]	OBJ	23.6078
	y[7][1][0]	B8	1.0
	y[7][1][0]	A31	-7.911
	y[3][1][0]	B4	1.0
	y[3][1][0]	OBJ	11.75231
	y[3][1][0]	A15	-7.911
	r[1][1]	F4	166.0
	r[1][1]	OBJ	6.3063
	s[1][1]	D4	3.276
	s[1][1]	OBJ	351.85
	y[21][1][0]	A87	-7.911
	y[21][1][0]	B22	1.0
	y[21][1][0]	OBJ	23.16348
	w[0][1]	OBJ	0.5869
	w[0][1]	E3	0.18
	y[22][1][0]	OBJ	0.12244
	y[22][1][0]	A91	-7.911
	y[22][1][0]	B23	1.0
	y[23][0][0]	B24	1.0
	y[23][0][0]	OBJ	0.06863
	y[23][0][0]	A93	-9.04463
	y[20][0][0]	A81	-9.04463
	y[20][0][0]	B21	1.0
	y[20][0][0]	OBJ	12.98462
	y[2][1][0]	OBJ	11.75231
	y[2][1][0]	A11	-7.911
	y[2][1][0]	B3	1.0
	y[15][1][1]	OBJ	2.49184
	y[15][1][1]	B40	1.0
	y[15][1][1]	A159	-7.911
	y[4][0][0]	A17	-9.04463
	y[4][0][0]	OBJ	9.94145
	y[4][0][0]	B5	1.0
	y[19][1][1]	OBJ	0.08624
	y[19][1][1]	A175	-7.911
	y[19][1][1]	B44	1.0
	y[11][1][1]	OBJ	7.6226
	y[11][1][1]	B36	1.0
	y[11][1][1]	A143	-7.911
	y[22][1][1]	B47	1.0
	y[22][1][1]	OBJ	0.12244
	y[22][1][1]	A187	-7.911
	r[0][0]	OBJ	6.3063
	r[0][0]	F1	120.0
	y[8][0][0]	B9	1.0
	y[8][0][0]	A33	-9.04463
	y[8][0][0]	OBJ	0.06518
	y[0][0][1]	B25	1.0
	y[0][0][1]	OBJ	0.33065
	y[0][0][1]	A97	-9.04463
	y[20][0][1]	A177	-9.04463
	y[20][0][1]	B45	1.0
	y[20][0][1]	OBJ	12.98462
	y[13][0][1]	A149	-9.04463
	y[13][0][1]	OBJ	1.6472
	y[13][0][1]	B38	1.0
	y[6][1][0]	OBJ	23.6078
	y[6][1][0]	A27	-7.911
	y[6][1][0]	B7	1.0
	y[17][0][1]	B42	1.0
	y[17][0][1]	A165	-9.04463
	y[17][0][1]	OBJ	3.5741
	y[7][0][1]	B32	1.0
	y[7][0][1]	A125	-9.04463
	y[7][0][1]	OBJ	13.23368
	y[3][0][1]	A109	-9.04463
	y[3][0][1]	OBJ	6.58792
	y[3][0][1]	B28	1.0
	y[4][0][1]	A113	-9.04463
	y[4][0][1]	B29	1.0
	y[4][0][1]	OBJ	9.94145
	y[9][0][1]	B34	1.0
	y[9][0][1]	OBJ	0.06518
	y[9][0][1]	A133	-9.04463
	y[1][0][1]	OBJ	0.33065
	y[1][0][1]	A101	-9.04463
	y[1][0][1]	B26	1.0
	y[2][0][1]	A105	-9.04463
	y[2][0][1]	B27	1.0
	y[2][0][1]	OBJ	6.58792
	y[5][0][1]	A117	-9.04463
	y[5][0][1]	B30	1.0
	y[5][0][1]	OBJ	9.94145
	y[6][0][1]	OBJ	13.23368
	y[6][0][1]	A121	-9.04463
	y[6][0][1]	B31	1.0
	y[8][0][1]	B33	1.0
	y[8][0][1]	A129	-9.04463
	y[8][0][1]	OBJ	0.06518
	r[0][1]	F3	120.0
	r[0][1]	OBJ	6.3063
	y[15][0][0]	B16	1.0
	y[15][0][0]	OBJ	1.39684
	y[15][0][0]	A61	-9.04463
	y[0][0][0]	A1	-9.04463
	y[0][0][0]	OBJ	0.33065
	y[0][0][0]	B1	1.0
	w[1][0]	OBJ	0.5412
	w[1][0]	E2	0.5
	y[11][0][0]	OBJ	4.27295
	y[11][0][0]	B12	1.0
	y[11][0][0]	A45	-9.04463
	y[13][0][0]	OBJ	1.6472
	y[13][0][0]	B14	1.0
	y[13][0][0]	A53	-9.04463
	y[10][0][0]	B11	1.0
	y[10][0][0]	OBJ	4.27295
	y[10][0][0]	A41	-9.04463
	y[12][0][0]	B13	1.0
	y[12][0][0]	A49	-9.04463
	y[12][0][0]	OBJ	1.6472
	y[14][0][0]	B15	1.0
	y[14][0][0]	OBJ	1.39684
	y[14][0][0]	A57	-9.04463
	y[16][0][0]	A65	-9.04463
	y[16][0][0]	OBJ	3.5741
	y[16][0][0]	B17	1.0
	y[17][0][0]	A69	-9.04463
	y[17][0][0]	OBJ	3.5741
	y[17][0][0]	B18	1.0
	y[18][0][0]	OBJ	0.04835
	y[18][0][0]	B19	1.0
	y[18][0][0]	A73	-9.04463
	y[19][0][0]	A77	-9.04463
	y[19][0][0]	OBJ	0.04835
	y[19][0][0]	B20	1.0
	y[1][0][0]	OBJ	0.33065
	y[1][0][0]	B2	1.0
	y[1][0][0]	A5	-9.04463
	y[3][0][0]	OBJ	6.58792
	y[3][0][0]	A13	-9.04463
	y[3][0][0]	B4	1.0
	y[5][0][0]	OBJ	9.94145
	y[5][0][0]	B6	1.0
	y[5][0][0]	A21	-9.04463
	y[7][0][0]	A29	-9.04463
	y[7][0][0]	OBJ	13.23368
	y[7][0][0]	B8	1.0
	y[9][0][0]	OBJ	0.06518
	y[9][0][0]	A37	-9.04463
	y[9][0][0]	B10	1.0
	y[23][0][1]	B48	1.0
	y[23][0][1]	A189	-9.04463
	y[23][0][1]	OBJ	0.06863
	y[14][0][1]	A153	-9.04463
	y[14][0][1]	B39	1.0
	y[14][0][1]	OBJ	1.39684
	s[0][0]	D1	4.635
	s[0][0]	OBJ	402.85
	y[18][0][1]	A169	-9.04463
	y[18][0][1]	B43	1.0
	y[18][0][1]	OBJ	0.04835
	y[10][0][1]	A137	-9.04463
	y[10][0][1]	B35	1.0
	y[10][0][1]	OBJ	4.27295
	y[21][0][1]	A181	-9.04463
	y[21][0][1]	OBJ	12.98462
	y[21][0][1]	B46	1.0
	y[12][0][1]	A145	-9.04463
	y[12][0][1]	OBJ	1.6472
	y[12][0][1]	B37	1.0
	y[16][0][1]	B41	1.0
	y[16][0][1]	A161	-9.04463
	y[16][0][1]	OBJ	3.5741
	y[20][1][0]	B21	1.0
	y[20][1][0]	A83	-7.911
	y[20][1][0]	OBJ	23.16348
	y[23][1][0]	A95	-7.911
	y[23][1][0]	OBJ	0.12244
	y[23][1][0]	B24	1.0
	y[22][0][0]	A89	-9.04463
	y[22][0][0]	OBJ	0.06863
	y[22][0][0]	B23	1.0
	s[0][1]	OBJ	402.85
	s[0][1]	D3	4.635
	y[21][0][0]	A85	-9.04463
	y[21][0][0]	B22	1.0
	y[21][0][0]	OBJ	12.98462
	r[1][0]	OBJ	6.3063
	r[1][0]	F2	166.0
	y[20][1][1]	B45	1.0
	y[20][1][1]	OBJ	23.16348
	y[20][1][1]	A179	-7.911
	y[13][1][1]	OBJ	2.93846
	y[13][1][1]	B38	1.0
	y[13][1][1]	A151	-7.911
	y[2][0][0]	B3	1.0
	y[2][0][0]	A9	-9.04463
	y[2][0][0]	OBJ	6.58792
	y[6][0][0]	B7	1.0
	y[6][0][0]	OBJ	13.23368
	y[6][0][0]	A25	-9.04463
	y[17][1][1]	A167	-7.911
	y[17][1][1]	B42	1.0
	y[17][1][1]	OBJ	6.37591
	y[15][0][1]	A157	-9.04463
	y[15][0][1]	B40	1.0
	y[15][0][1]	OBJ	1.39684
	y[22][0][1]	A185	-9.04463
	y[22][0][1]	B47	1.0
	y[22][0][1]	OBJ	0.06863
	y[11][0][1]	B36	1.0
	y[11][0][1]	OBJ	4.27295
	y[11][0][1]	A141	-9.04463
	w[1][1]	OBJ	0.5412
	w[1][1]	E4	0.5
	y[0][1][0]	A3	-7.911
	y[0][1][0]	OBJ	0.58985
	y[0][1][0]	B1	1.0
	y[4][1][0]	A19	-7.911
	y[4][1][0]	B5	1.0
	y[4][1][0]	OBJ	17.73472
	y[8][1][0]	A35	-7.911
	y[8][1][0]	B9	1.0
	y[8][1][0]	OBJ	0.11628
	y[19][0][1]	B44	1.0
	y[19][0][1]	A173	-9.04463
	y[19][0][1]	OBJ	0.04835
	MARK0001	'MARKER'	'INTEND'
	p[6][0][1]	A122	1.0
	p[6][0][1]	C12	-1.0
	p[6][0][1]	C17	1.0
	p[6][0][1]	OBJ	3.54772
	p[6][0][1]	A121	1.0
	p[7][0][1]	C17	-1.0
	p[7][0][1]	A125	1.0
	p[7][0][1]	A126	1.0
	p[7][0][1]	C12	1.0
	p[7][0][1]	OBJ	3.54772
	p[10][0][1]	C11	-1.0
	p[10][0][1]	A137	1.0
	p[10][0][1]	C12	1.0
	p[10][0][1]	OBJ	1.1455
	p[10][0][1]	A138	1.0
	p[11][0][1]	A141	1.0
	p[11][0][1]	OBJ	1.1455
	p[11][0][1]	A142	1.0
	p[11][0][1]	C12	-1.0
	p[11][0][1]	C11	1.0
	p[12][0][1]	OBJ	0.44158
	p[12][0][1]	C18	-1.0
	p[12][0][1]	A146	1.0
	p[12][0][1]	C19	1.0
	p[12][0][1]	A145	1.0
	p[15][0][1]	A157	1.0
	p[15][0][1]	C17	-1.0
	p[15][0][1]	C18	1.0
	p[15][0][1]	OBJ	0.37447
	p[15][0][1]	A158	1.0
	p[14][0][1]	A153	1.0
	p[14][0][1]	C18	-1.0
	p[14][0][1]	A154	1.0
	p[14][0][1]	C17	1.0
	p[14][0][1]	OBJ	0.37447
	p[16][0][1]	A161	1.0
	p[16][0][1]	C20	-1.0
	p[16][0][1]	C15	1.0
	p[16][0][1]	A162	1.0
	p[16][0][1]	OBJ	0.95815
	p[13][0][1]	C18	1.0
	p[13][0][1]	OBJ	0.44158
	p[13][0][1]	A149	1.0
	p[13][0][1]	A150	1.0
	p[13][0][1]	C19	-1.0
	p[17][0][1]	C15	-1.0
	p[17][0][1]	A165	1.0
	p[17][0][1]	OBJ	0.95815
	p[17][0][1]	C20	1.0
	p[17][0][1]	A166	1.0
	p[2][0][1]	OBJ	1.76611
	p[2][0][1]	C17	1.0
	p[2][0][1]	A106	1.0
	p[2][0][1]	A105	1.0
	p[2][0][1]	C14	-1.0
	p[3][0][1]	C14	1.0
	p[3][0][1]	A109	1.0
	p[3][0][1]	A110	1.0
	p[3][0][1]	C17	-1.0
	p[3][0][1]	OBJ	1.76611
	p[9][0][1]	A133	1.0
	p[9][0][1]	C15	-1.0
	p[9][0][1]	A134	1.0
	p[9][0][1]	C16	1.0
	p[9][0][1]	OBJ	0.01747
	p[8][0][1]	A129	1.0
	p[8][0][1]	A130	1.0
	p[8][0][1]	OBJ	0.01747
	p[8][0][1]	C16	-1.0
	p[8][0][1]	C15	1.0
	p[1][0][1]	C14	1.0
	p[1][0][1]	A102	1.0
	p[1][0][1]	C16	-1.0
	p[1][0][1]	OBJ	0.08864
	p[1][0][1]	A101	1.0
	p[4][0][1]	A114	1.0
	p[4][0][1]	C18	1.0
	p[4][0][1]	C20	-1.0
	p[4][0][1]	OBJ	2.66513
	p[4][0][1]	A113	1.0
	p[5][0][1]	C20	1.0
	p[5][0][1]	A118	1.0
	p[5][0][1]	A117	1.0
	p[5][0][1]	C18	-1.0
	p[5][0][1]	OBJ	2.66513
	p[0][0][1]	OBJ	0.08864
	p[0][0][1]	A98	1.0
	p[0][0][1]	A97	1.0
	p[0][0][1]	C16	1.0
	p[0][0][1]	C14	-1.0
	p[20][1][0]	A84	1.0
	p[20][1][0]	OBJ	2.35554
	p[20][1][0]	C2	-1.0
	p[20][1][0]	A83	1.0
	p[20][1][0]	C3	1.0
	p[21][1][0]	A87	1.0
	p[21][1][0]	A88	1.0
	p[21][1][0]	C3	-1.0
	p[21][1][0]	OBJ	2.35554
	p[21][1][0]	C2	1.0
	p[22][1][0]	A92	1.0
	p[22][1][0]	C3	1.0
	p[22][1][0]	A91	1.0
	p[22][1][0]	C6	-1.0
	p[22][1][0]	OBJ	0.01245
	p[23][1][0]	A96	1.0
	p[23][1][0]	OBJ	0.01245
	p[23][1][0]	C6	1.0
	p[23][1][0]	C3	-1.0
	p[23][1][0]	A95	1.0
	p[6][0][0]	A25	1.0
	p[6][0][0]	A26	1.0
	p[6][0][0]	C2	-1.0
	p[6][0][0]	C7	1.0
	p[6][0][0]	OBJ	3.54772
	a[1][1]	G1	1.0
	a[1][1]	OBJ	94.74
	a[1][1]	D4	-1.0
	a[1][1]	C19	-1.0
	p[8][0][0]	C5	1.0
	p[8][0][0]	A33	1.0
	p[8][0][0]	C6	-1.0
	p[8][0][0]	A34	1.0
	p[8][0][0]	OBJ	0.01747
	p[10][0][0]	A41	1.0
	p[10][0][0]	C1	-1.0
	p[10][0][0]	C2	1.0
	p[10][0][0]	OBJ	1.1455
	p[10][0][0]	A42	1.0
	p[12][0][0]	A50	1.0
	p[12][0][0]	C8	-1.0
	p[12][0][0]	C9	1.0
	p[12][0][0]	A49	1.0
	p[12][0][0]	OBJ	0.44158
	b[1][0]	C4	1.0
	b[1][0]	E2	-1.0
	b[1][0]	F2	-1.0
	b[1][0]	OBJ	2.84
	p[19][0][1]	A173	1.0
	p[19][0][1]	C13	-1.0
	p[19][0][1]	OBJ	0.01296
	p[19][0][1]	C15	1.0
	p[19][0][1]	A174	1.0
	p[0][0][0]	A1	1.0
	p[0][0][0]	A2	1.0
	p[0][0][0]	OBJ	0.08864
	p[0][0][0]	C6	1.0
	p[0][0][0]	C4	-1.0
	p[14][0][0]	A57	1.0
	p[14][0][0]	A58	1.0
	p[14][0][0]	OBJ	0.37447
	p[14][0][0]	C7	1.0
	p[14][0][0]	C8	-1.0
	p[16][0][0]	A66	1.0
	p[16][0][0]	C5	1.0
	p[16][0][0]	A65	1.0
	p[16][0][0]	C10	-1.0
	p[16][0][0]	OBJ	0.95815
	p[2][0][0]	C7	1.0
	p[2][0][0]	A9	1.0
	p[2][0][0]	C4	-1.0
	p[2][0][0]	OBJ	1.76611
	p[2][0][0]	A10	1.0
	p[4][0][0]	C10	-1.0
	p[4][0][0]	OBJ	2.66513
	p[4][0][0]	C8	1.0
	p[4][0][0]	A18	1.0
	p[4][0][0]	A17	1.0
	b[0][1]	E3	-1.0
	b[0][1]	F3	-1.0
	b[0][1]	OBJ	3.02
	b[0][1]	C20	1.0
	p[20][1][1]	A180	1.0
	p[20][1][1]	OBJ	2.35554
	p[20][1][1]	C13	1.0
	p[20][1][1]	C12	-1.0
	p[20][1][1]	A179	1.0
	p[22][1][1]	A187	1.0
	p[22][1][1]	C16	-1.0
	p[22][1][1]	A188	1.0
	p[22][1][1]	OBJ	0.01245
	p[22][1][1]	C13	1.0
	a[1][0]	OBJ	94.74
	a[1][0]	C9	-1.0
	a[1][0]	D2	-1.0
	a[1][0]	G1	1.0
	p[16][1][0]	A68	1.0
	p[16][1][0]	C10	-1.0
	p[16][1][0]	C5	1.0
	p[16][1][0]	OBJ	0.64838
	p[16][1][0]	A67	1.0
	p[15][1][0]	OBJ	0.2534
	p[15][1][0]	A63	1.0
	p[15][1][0]	C7	-1.0
	p[15][1][0]	A64	1.0
	p[15][1][0]	C8	1.0
	p[18][0][0]	C5	-1.0
	p[18][0][0]	C3	1.0
	p[18][0][0]	A73	1.0
	p[18][0][0]	OBJ	0.01296
	p[18][0][0]	A74	1.0
	p[20][0][1]	C13	1.0
	p[20][0][1]	OBJ	3.48095
	p[20][0][1]	A177	1.0
	p[20][0][1]	A178	1.0
	p[20][0][1]	C12	-1.0
	p[21][0][1]	A182	1.0
	p[21][0][1]	OBJ	3.48095
	p[21][0][1]	A181	1.0
	p[21][0][1]	C13	-1.0
	p[21][0][1]	C12	1.0
	p[8][1][0]	C6	-1.0
	p[8][1][0]	A35	1.0
	p[8][1][0]	A36	1.0
	p[8][1][0]	C5	1.0
	p[8][1][0]	OBJ	0.01182
	p[7][1][0]	C2	1.0
	p[7][1][0]	A31	1.0
	p[7][1][0]	C7	-1.0
	p[7][1][0]	OBJ	2.40073
	p[7][1][0]	A32	1.0
	p[11][1][0]	C1	1.0
	p[11][1][0]	A48	1.0
	p[11][1][0]	C2	-1.0
	p[11][1][0]	A47	1.0
	p[11][1][0]	OBJ	0.77516
	p[12][1][0]	OBJ	0.29882
	p[12][1][0]	C8	-1.0
	p[12][1][0]	A52	1.0
	p[12][1][0]	A51	1.0
	p[12][1][0]	C9	1.0
	p[19][1][0]	C5	1.0
	p[19][1][0]	OBJ	0.00877
	p[19][1][0]	C3	-1.0
	p[19][1][0]	A79	1.0
	p[19][1][0]	A80	1.0
	p[16][1][1]	A163	1.0
	p[16][1][1]	A164	1.0
	p[16][1][1]	C15	1.0
	p[16][1][1]	OBJ	0.64838
	p[16][1][1]	C20	-1.0
	p[20][0][0]	C2	-1.0
	p[20][0][0]	C3	1.0
	p[20][0][0]	A81	1.0
	p[20][0][0]	OBJ	3.48095
	p[20][0][0]	A82	1.0
	p[13][0][0]	A54	1.0
	p[13][0][0]	C8	1.0
	p[13][0][0]	OBJ	0.44158
	p[13][0][0]	C9	-1.0
	p[13][0][0]	A53	1.0
	p[18][0][1]	OBJ	0.01296
	p[18][0][1]	C15	-1.0
	p[18][0][1]	A169	1.0
	p[18][0][1]	A170	1.0
	p[18][0][1]	C13	1.0
	p[3][1][0]	C4	1.0
	p[3][1][0]	C7	-1.0
	p[3][1][0]	A15	1.0
	p[3][1][0]	A16	1.0
	p[3][1][0]	OBJ	1.19512
	p[8][1][1]	A131	1.0
	p[8][1][1]	C16	-1.0
	p[8][1][1]	C15	1.0
	p[8][1][1]	A132	1.0
	p[8][1][1]	OBJ	0.01182
	p[17][0][0]	A70	1.0
	p[17][0][0]	C5	-1.0
	p[17][0][0]	OBJ	0.95815
	p[17][0][0]	C10	1.0
	p[17][0][0]	A69	1.0
	p[12][1][1]	C19	1.0
	p[12][1][1]	OBJ	0.29882
	p[12][1][1]	C18	-1.0
	p[12][1][1]	A147	1.0
	p[12][1][1]	A148	1.0
	p[9][0][0]	A38	1.0
	p[9][0][0]	C5	-1.0
	p[9][0][0]	C6	1.0
	p[9][0][0]	A37	1.0
	p[9][0][0]	OBJ	0.01747
	p[1][0][0]	C6	-1.0
	p[1][0][0]	OBJ	0.08864
	p[1][0][0]	A5	1.0
	p[1][0][0]	C4	1.0
	p[1][0][0]	A6	1.0
	p[5][0][0]	OBJ	2.66513
	p[5][0][0]	C8	-1.0
	p[5][0][0]	A22	1.0
	p[5][0][0]	A21	1.0
	p[5][0][0]	C10	1.0
	p[23][1][1]	C16	1.0
	p[23][1][1]	OBJ	0.01245
	p[23][1][1]	A191	1.0
	p[23][1][1]	C13	-1.0
	p[23][1][1]	A192	1.0
	p[0][1][1]	A99	1.0
	p[0][1][1]	A100	1.0
	p[0][1][1]	OBJ	0.05998
	p[0][1][1]	C16	1.0
	p[0][1][1]	C14	-1.0
	projectLength	H[3][1]	1.0
	p[4][1][1]	A115	1.0
	p[4][1][1]	C18	1.0
	p[4][1][1]	OBJ	1.80348
	p[4][1][1]	C20	-1.0
	p[4][1][1]	A116	1.0
	p[2][1][1]	A107	1.0
	p[2][1][1]	A108	1.0
	p[2][1][1]	C14	-1.0
	p[2][1][1]	OBJ	1.19512
	p[2][1][1]	C17	1.0
	p[6][1][1]	A123	1.0
	p[6][1][1]	C12	-1.0
	p[6][1][1]	OBJ	2.40073
	p[6][1][1]	C17	1.0
	p[6][1][1]	A124	1.0
	p[1][1][1]	C16	-1.0
	p[1][1][1]	OBJ	0.05998
	p[1][1][1]	A103	1.0
	p[1][1][1]	A104	1.0
	p[1][1][1]	C14	1.0
	p[3][1][1]	A112	1.0
	p[3][1][1]	OBJ	1.19512
	p[3][1][1]	C14	1.0
	p[3][1][1]	C17	-1.0
	p[3][1][1]	A111	1.0
	p[5][1][1]	C18	-1.0
	p[5][1][1]	OBJ	1.80348
	p[5][1][1]	A119	1.0
	p[5][1][1]	C20	1.0
	p[5][1][1]	A120	1.0
	a[0][1]	OBJ	71.9
	a[0][1]	C11	-1.0
	a[0][1]	D3	-1.0
	a[0][1]	G1	1.0
	p[0][1][0]	A4	1.0
	p[0][1][0]	A3	1.0
	p[0][1][0]	C6	1.0
	p[0][1][0]	OBJ	0.05998
	p[0][1][0]	C4	-1.0
	p[17][1][1]	A168	1.0
	p[17][1][1]	C15	-1.0
	p[17][1][1]	OBJ	0.64838
	p[17][1][1]	C20	1.0
	p[17][1][1]	A167	1.0
	p[15][1][1]	C18	1.0
	p[15][1][1]	A159	1.0
	p[15][1][1]	A160	1.0
	p[15][1][1]	OBJ	0.2534
	p[15][1][1]	C17	-1.0
	p[4][1][0]	A19	1.0
	p[4][1][0]	OBJ	1.80348
	p[4][1][0]	A20	1.0
	p[4][1][0]	C8	1.0
	p[4][1][0]	C10	-1.0
	p[6][1][0]	A27	1.0
	p[6][1][0]	OBJ	2.40073
	p[6][1][0]	C2	-1.0
	p[6][1][0]	A28	1.0
	p[6][1][0]	C7	1.0
	p[2][1][0]	OBJ	1.19512
	p[2][1][0]	A12	1.0
	p[2][1][0]	C7	1.0
	p[2][1][0]	C4	-1.0
	p[2][1][0]	A11	1.0
	p[9][1][1]	C15	-1.0
	p[9][1][1]	OBJ	0.01182
	p[9][1][1]	A135	1.0
	p[9][1][1]	A136	1.0
	p[9][1][1]	C16	1.0
	p[21][0][0]	OBJ	3.48095
	p[21][0][0]	A86	1.0
	p[21][0][0]	C2	1.0
	p[21][0][0]	C3	-1.0
	p[21][0][0]	A85	1.0
	p[23][0][0]	C3	-1.0
	p[23][0][0]	A94	1.0
	p[23][0][0]	OBJ	0.0184
	p[23][0][0]	A93	1.0
	p[23][0][0]	C6	1.0
	p[7][1][1]	C17	-1.0
	p[7][1][1]	A127	1.0
	p[7][1][1]	C12	1.0
	p[7][1][1]	OBJ	2.40073
	p[7][1][1]	A128	1.0
	p[11][1][1]	A143	1.0
	p[11][1][1]	OBJ	0.77516
	p[11][1][1]	C12	-1.0
	p[11][1][1]	A144	1.0
	p[11][1][1]	C11	1.0
	p[13][1][1]	A151	1.0
	p[13][1][1]	A152	1.0
	p[13][1][1]	C18	1.0
	p[13][1][1]	C19	-1.0
	p[13][1][1]	OBJ	0.29882
	p[19][1][1]	A176	1.0
	p[19][1][1]	C15	1.0
	p[19][1][1]	A175	1.0
	p[19][1][1]	C13	-1.0
	p[19][1][1]	OBJ	0.00877
	p[17][1][0]	A71	1.0
	p[17][1][0]	OBJ	0.64838
	p[17][1][0]	C5	-1.0
	p[17][1][0]	A72	1.0
	p[17][1][0]	C10	1.0
	p[18][1][0]	A75	1.0
	p[18][1][0]	A76	1.0
	p[18][1][0]	C3	1.0
	p[18][1][0]	C5	-1.0
	p[18][1][0]	OBJ	0.00877
	p[19][0][0]	C3	-1.0
	p[19][0][0]	A77	1.0
	p[19][0][0]	OBJ	0.01296
	p[19][0][0]	A78	1.0
	p[19][0][0]	C5	1.0
	b[1][1]	C14	1.0
	b[1][1]	OBJ	2.84
	b[1][1]	E4	-1.0
	b[1][1]	F4	-1.0
	p[22][0][1]	A185	1.0
	p[22][0][1]	C16	-1.0
	p[22][0][1]	A186	1.0
	p[22][0][1]	C13	1.0
	p[22][0][1]	OBJ	0.0184
	p[23][0][1]	OBJ	0.0184
	p[23][0][1]	A189	1.0
	p[23][0][1]	C16	1.0
	p[23][0][1]	A190	1.0
	p[23][0][1]	C13	-1.0
	p[10][1][0]	C2	1.0
	p[10][1][0]	A43	1.0
	p[10][1][0]	A44	1.0
	p[10][1][0]	OBJ	0.77516
	p[10][1][0]	C1	-1.0
	p[9][1][0]	A39	1.0
	p[9][1][0]	OBJ	0.01182
	p[9][1][0]	C5	-1.0
	p[9][1][0]	C6	1.0
	p[9][1][0]	A40	1.0
	crf	H[2]	1.0
	p[13][1][0]	OBJ	0.29882
	p[13][1][0]	A56	1.0
	p[13][1][0]	A55	1.0
	p[13][1][0]	C8	1.0
	p[13][1][0]	C9	-1.0
	b[0][0]	E1	-1.0
	b[0][0]	C10	1.0
	b[0][0]	F1	-1.0
	b[0][0]	OBJ	3.02
	p[14][1][0]	OBJ	0.2534
	p[14][1][0]	A59	1.0
	p[14][1][0]	A60	1.0
	p[14][1][0]	C7	1.0
	p[14][1][0]	C8	-1.0
	p[1][1][0]	A8	1.0
	p[1][1][0]	A7	1.0
	p[1][1][0]	OBJ	0.05998
	p[1][1][0]	C6	-1.0
	p[1][1][0]	C4	1.0
	captureTarget	H[1][1]	1.0
	p[7][0][0]	A29	1.0
	p[7][0][0]	OBJ	3.54772
	p[7][0][0]	A30	1.0
	p[7][0][0]	C7	-1.0
	p[7][0][0]	C2	1.0
	p[18][1][1]	C15	-1.0
	p[18][1][1]	A172	1.0
	p[18][1][1]	A171	1.0
	p[18][1][1]	C13	1.0
	p[18][1][1]	OBJ	0.00877
	p[14][1][1]	A155	1.0
	p[14][1][1]	A156	1.0
	p[14][1][1]	C17	1.0
	p[14][1][1]	OBJ	0.2534
	p[14][1][1]	C18	-1.0
	p[5][1][0]	OBJ	1.80348
	p[5][1][0]	A23	1.0
	p[5][1][0]	A24	1.0
	p[5][1][0]	C8	-1.0
	p[5][1][0]	C10	1.0
	p[11][0][0]	A46	1.0
	p[11][0][0]	OBJ	1.1455
	p[11][0][0]	C1	1.0
	p[11][0][0]	A45	1.0
	p[11][0][0]	C2	-1.0
	p[22][0][0]	C3	1.0
	p[22][0][0]	A90	1.0
	p[22][0][0]	OBJ	0.0184
	p[22][0][0]	C6	-1.0
	p[22][0][0]	A89	1.0
	p[15][0][0]	OBJ	0.37447
	p[15][0][0]	C7	-1.0
	p[15][0][0]	C8	1.0
	p[15][0][0]	A61	1.0
	p[15][0][0]	A62	1.0
	a[0][0]	G1	1.0
	a[0][0]	C1	-1.0
	a[0][0]	OBJ	71.9
	a[0][0]	D1	-1.0
	p[10][1][1]	A140	1.0
	p[10][1][1]	A139	1.0
	p[10][1][1]	C12	1.0
	p[10][1][1]	C11	-1.0
	p[10][1][1]	OBJ	0.77516
	p[3][0][0]	OBJ	1.76611
	p[3][0][0]	A13	1.0
	p[3][0][0]	C4	1.0
	p[3][0][0]	A14	1.0
	p[3][0][0]	C7	-1.0
	p[21][1][1]	A184	1.0
	p[21][1][1]	C13	-1.0
	p[21][1][1]	A183	1.0
	p[21][1][1]	OBJ	2.35554
	p[21][1][1]	C12	1.0
RHS
	rhs	A87	0.0
	rhs	B20	1.0
	rhs	B21	1.0
	rhs	A89	0.0
	rhs	B22	1.0
	rhs	B23	1.0
	rhs	B24	1.0
	rhs	B25	1.0
	rhs	B26	1.0
	rhs	A109	0.0
	rhs	B27	1.0
	rhs	B28	1.0
	rhs	A107	0.0
	rhs	B29	1.0
	rhs	A105	0.0
	rhs	A103	0.0
	rhs	A101	0.0
	rhs	A189	0.0
	rhs	H[1][1]	6.0
	rhs	A1	0.0
	rhs	A187	0.0
	rhs	A3	0.0
	rhs	A185	0.0
	rhs	A5	0.0
	rhs	A183	0.0
	rhs	A7	0.0
	rhs	A181	0.0
	rhs	A9	0.0
	rhs	A91	0.0
	rhs	A93	0.0
	rhs	A95	0.0
	rhs	A97	0.0
	rhs	B30	1.0
	rhs	B31	1.0
	rhs	A11	0.0
	rhs	A99	0.0
	rhs	B32	1.0
	rhs	B33	1.0
	rhs	A13	0.0
	rhs	B34	1.0
	rhs	B35	1.0
	rhs	A15	0.0
	rhs	B36	1.0
	rhs	A119	0.0
	rhs	B37	1.0
	rhs	A17	0.0
	rhs	B38	1.0
	rhs	A117	0.0
	rhs	B39	1.0
	rhs	A19	0.0
	rhs	A115	0.0
	rhs	A113	0.0
	rhs	A111	0.0
	rhs	H[1][0]	6.0
	rhs	B1	1.0
	rhs	B2	1.0
	rhs	B3	1.0
	rhs	B4	1.0
	rhs	B5	1.0
	rhs	B6	1.0
	rhs	B7	1.0
	rhs	A191	0.0
	rhs	B8	1.0
	rhs	B9	1.0
	rhs	B40	1.0
	rhs	B41	1.0
	rhs	A21	0.0
	rhs	B42	1.0
	rhs	B43	1.0
	rhs	A23	0.0
	rhs	B44	1.0
	rhs	B45	1.0
	rhs	A25	0.0
	rhs	B46	1.0
	rhs	B47	1.0
	rhs	A27	0.0
	rhs	B48	1.0
	rhs	A29	0.0
	rhs	A129	0.0
	rhs	A127	0.0
	rhs	A125	0.0
	rhs	A123	0.0
	rhs	A121	0.0
	rhs	A31	0.0
	rhs	A33	0.0
	rhs	A35	0.0
	rhs	A37	0.0
	rhs	A39	0.0
	rhs	A139	0.0
	rhs	A137	0.0
	rhs	A135	0.0
	rhs	A133	0.0
	rhs	A131	0.0
	rhs	A41	0.0
	rhs	A43	0.0
	rhs	A45	0.0
	rhs	A47	0.0
	rhs	A49	0.0
	rhs	A149	0.0
	rhs	A147	0.0
	rhs	A145	0.0
	rhs	A143	0.0
	rhs	A141	0.0
	rhs	H[2]	0.1
	rhs	A51	0.0
	rhs	A53	0.0
	rhs	A55	0.0
	rhs	A57	0.0
	rhs	A59	0.0
	rhs	A159	0.0
	rhs	A157	0.0
	rhs	A155	0.0
	rhs	A153	0.0
	rhs	A151	0.0
	rhs	A61	0.0
	rhs	A63	0.0
	rhs	A65	0.0
	rhs	A67	0.0
	rhs	A69	0.0
	rhs	H[3][0]	3.0
	rhs	G1	6.0
	rhs	A169	0.0
	rhs	A167	0.0
	rhs	A165	0.0
	rhs	A163	0.0
	rhs	A161	0.0
	rhs	A71	0.0
	rhs	A73	0.0
	rhs	A75	0.0
	rhs	A77	0.0
	rhs	B10	1.0
	rhs	B11	1.0
	rhs	A79	0.0
	rhs	B12	1.0
	rhs	B13	1.0
	rhs	B14	1.0
	rhs	B15	1.0
	rhs	B16	1.0
	rhs	B17	1.0
	rhs	B18	1.0
	rhs	H[3][1]	3.0
	rhs	B19	1.0
	rhs	A179	0.0
	rhs	A177	0.0
	rhs	A175	0.0
	rhs	A173	0.0
	rhs	A171	0.0
	rhs	A81	0.0
	rhs	A83	0.0
	rhs	A85	0.0
BOUNDS
	UP bnd	y[16][1][0]	1.0
	UP bnd	y[1][1][1]	1.0
	UP bnd	y[0][1][1]	1.0
	UP bnd	y[2][1][1]	1.0
	UP bnd	y[12][1][0]	1.0
	UP bnd	y[13][1][0]	1.0
	UP bnd	y[18][1][0]	1.0
	UP bnd	y[10][1][0]	1.0
	UP bnd	y[11][1][0]	1.0
	UP bnd	y[14][1][0]	1.0
	UP bnd	y[15][1][0]	1.0
	UP bnd	y[17][1][0]	1.0
	UP bnd	y[19][1][0]	1.0
	UP bnd	y[8][1][1]	1.0
	UP bnd	y[9][1][1]	1.0
	UP bnd	y[5][1][1]	1.0
	UP bnd	y[4][1][1]	1.0
	UP bnd	y[3][1][1]	1.0
	UP bnd	y[6][1][1]	1.0
	UP bnd	y[7][1][1]	1.0
	UP bnd	y[1][1][0]	1.0
	UP bnd	y[16][1][1]	1.0
	UP bnd	s[1][0]	1.0
	UP bnd	y[12][1][1]	1.0
	LI bnd	w[0][0]	0.0
	UP bnd	y[21][1][1]	1.0
	UP bnd	y[10][1][1]	1.0
	UP bnd	y[14][1][1]	1.0
	UP bnd	y[18][1][1]	1.0
	UP bnd	y[23][1][1]	1.0
	UP bnd	y[9][1][0]	1.0
	UP bnd	y[5][1][0]	1.0
	UP bnd	y[7][1][0]	1.0
	UP bnd	y[3][1][0]	1.0
	UP bnd	r[1][1]	1.0
	UP bnd	s[1][1]	1.0
	LI bnd	w[0][1]	0.0
	UP bnd	y[21][1][0]	1.0
	UP bnd	y[22][1][0]	1.0
	UP bnd	y[23][0][0]	1.0
	UP bnd	y[20][0][0]	1.0
	UP bnd	y[2][1][0]	1.0
	UP bnd	y[15][1][1]	1.0
	UP bnd	y[4][0][0]	1.0
	UP bnd	y[19][1][1]	1.0
	UP bnd	y[11][1][1]	1.0
	UP bnd	r[0][0]	1.0
	UP bnd	y[22][1][1]	1.0
	UP bnd	y[8][0][0]	1.0
	UP bnd	y[0][0][1]	1.0
	UP bnd	y[20][0][1]	1.0
	UP bnd	y[13][0][1]	1.0
	UP bnd	y[6][1][0]	1.0
	UP bnd	y[17][0][1]	1.0
	UP bnd	y[7][0][1]	1.0
	UP bnd	y[3][0][1]	1.0
	UP bnd	y[4][0][1]	1.0
	UP bnd	y[9][0][1]	1.0
	UP bnd	y[1][0][1]	1.0
	UP bnd	y[2][0][1]	1.0
	UP bnd	y[5][0][1]	1.0
	UP bnd	y[6][0][1]	1.0
	UP bnd	r[0][1]	1.0
	UP bnd	y[8][0][1]	1.0
	UP bnd	y[15][0][0]	1.0
	UP bnd	y[0][0][0]	1.0
	LI bnd	w[1][0]	0.0
	UP bnd	y[11][0][0]	1.0
	UP bnd	y[13][0][0]	1.0
	UP bnd	y[10][0][0]	1.0
	UP bnd	y[12][0][0]	1.0
	UP bnd	y[14][0][0]	1.0
	UP bnd	y[16][0][0]	1.0
	UP bnd	y[17][0][0]	1.0
	UP bnd	y[18][0][0]	1.0
	UP bnd	y[19][0][0]	1.0
	UP bnd	y[1][0][0]	1.0
	UP bnd	y[3][0][0]	1.0
	UP bnd	y[5][0][0]	1.0
	UP bnd	y[7][0][0]	1.0
	UP bnd	y[9][0][0]	1.0
	UP bnd	y[23][0][1]	1.0
	UP bnd	y[14][0][1]	1.0
	UP bnd	s[0][0]	1.0
	UP bnd	y[18][0][1]	1.0
	UP bnd	y[10][0][1]	1.0
	UP bnd	y[21][0][1]	1.0
	UP bnd	y[12][0][1]	1.0
	UP bnd	y[16][0][1]	1.0
	UP bnd	y[20][1][0]	1.0
	UP bnd	y[23][1][0]	1.0
	UP bnd	y[22][0][0]	1.0
	UP bnd	s[0][1]	1.0
	UP bnd	y[21][0][0]	1.0
	UP bnd	r[1][0]	1.0
	UP bnd	y[20][1][1]	1.0
	UP bnd	y[13][1][1]	1.0
	UP bnd	y[2][0][0]	1.0
	UP bnd	y[6][0][0]	1.0
	UP bnd	y[17][1][1]	1.0
	UP bnd	y[15][0][1]	1.0
	UP bnd	y[22][0][1]	1.0
	UP bnd	y[11][0][1]	1.0
	LI bnd	w[1][1]	0.0
	UP bnd	y[0][1][0]	1.0
	UP bnd	y[4][1][0]	1.0
	UP bnd	y[8][1][0]	1.0
	UP bnd	y[19][0][1]	1.0
ENDATA